(declare-const x0 Real)
(assert (<= 0.0 x0))
(declare-const x1 Real)
(assert (<= 0.0 x1))
(declare-const x2 Real)
(assert (<= 0.0 x2))
(declare-const x3 Real)
(assert (<= 0.0 x3))
(declare-const x4 Real)
(assert (<= 0.0 x4))
(declare-const x5 Real)
(assert (<= 0.0 x5))
(declare-const x6 Real)
(assert (<= 0.0 x6))
(declare-const x7 Real)
(assert (<= 0.0 x7))
(declare-const x8 Real)
(assert (<= 0.0 x8))
(declare-const x9 Real)
(assert (<= 0.0 x9))
(declare-const x10 Real)
(assert (<= 0.0 x10))
(declare-const x11 Real)
(assert (<= 0.0 x11))
(declare-const x12 Real)
(assert (<= 0.0 x12))
(declare-const x13 Real)
(assert (<= 0.0 x13))

(assert (= (+ (* 5.479340 x0) (* 0.832340 x1) (* 0.947490 x2) (* 1.110820 x3) (* 2.648240 x4) (* 1.558680 x5) (* 1.732150 x6) (* 3.908960 x7) (* 2.742840 x8) (* 2.605410 x9) (* 5.961840 x10) (* 3.295220 x11) (* 1.835170 x12) (* 2.813720 x13)) 1.0))

(minimize
	(+ (/ 12842.275000 x0) (/ 634.250000 x1) (/ 634.250000 x2) (/ 634.125000 x3) (/ 1268.0 x4) (/ 633.875000 x5) (/ 633.750000 x6) (/ 1267.0 x7) (/ 760.050000 x8) (/ 633.250000 x9) (/ 1266.250000 x10) (/ 632.875000 x11) (/ 394.460000 x12) (/ 940.838000 x13))
)
(check-sat)
(get-objectives)
(exit)

